Input/IP/Random/Random_030_01_6.lp
min: z;
+y0 +y1 +y2 +y3 +y4 +y5 +y6 +y7 +y8 +y9 +y10 +y11 +y12 +y13 +y14 +y15 +y16 +y17 +y18 +y19 +y20 +y21 +y22 +y23 +y24 +y25 +y26 +y27 +y28 +y29 = 6;
+x0.0 +x0.1 +x0.2 +x0.3 +x0.4 +x0.5 +x0.6 +x0.7 +x0.8 +x0.9 +x0.10 +x0.11 +x0.12 +x0.13 +x0.14 +x0.15 +x0.16 +x0.17 +x0.18 +x0.19 +x0.20 +x0.21 +x0.22 +x0.23 +x0.24 +x0.25 +x0.26 +x0.27 +x0.28 +x0.29 = 1;
+x1.0 +x1.1 +x1.2 +x1.3 +x1.4 +x1.5 +x1.6 +x1.7 +x1.8 +x1.9 +x1.10 +x1.11 +x1.12 +x1.13 +x1.14 +x1.15 +x1.16 +x1.17 +x1.18 +x1.19 +x1.20 +x1.21 +x1.22 +x1.23 +x1.24 +x1.25 +x1.26 +x1.27 +x1.28 +x1.29 = 1;
+x2.0 +x2.1 +x2.2 +x2.3 +x2.4 +x2.5 +x2.6 +x2.7 +x2.8 +x2.9 +x2.10 +x2.11 +x2.12 +x2.13 +x2.14 +x2.15 +x2.16 +x2.17 +x2.18 +x2.19 +x2.20 +x2.21 +x2.22 +x2.23 +x2.24 +x2.25 +x2.26 +x2.27 +x2.28 +x2.29 = 1;
+x3.0 +x3.1 +x3.2 +x3.3 +x3.4 +x3.5 +x3.6 +x3.7 +x3.8 +x3.9 +x3.10 +x3.11 +x3.12 +x3.13 +x3.14 +x3.15 +x3.16 +x3.17 +x3.18 +x3.19 +x3.20 +x3.21 +x3.22 +x3.23 +x3.24 +x3.25 +x3.26 +x3.27 +x3.28 +x3.29 = 1;
+x4.0 +x4.1 +x4.2 +x4.3 +x4.4 +x4.5 +x4.6 +x4.7 +x4.8 +x4.9 +x4.10 +x4.11 +x4.12 +x4.13 +x4.14 +x4.15 +x4.16 +x4.17 +x4.18 +x4.19 +x4.20 +x4.21 +x4.22 +x4.23 +x4.24 +x4.25 +x4.26 +x4.27 +x4.28 +x4.29 = 1;
+x5.0 +x5.1 +x5.2 +x5.3 +x5.4 +x5.5 +x5.6 +x5.7 +x5.8 +x5.9 +x5.10 +x5.11 +x5.12 +x5.13 +x5.14 +x5.15 +x5.16 +x5.17 +x5.18 +x5.19 +x5.20 +x5.21 +x5.22 +x5.23 +x5.24 +x5.25 +x5.26 +x5.27 +x5.28 +x5.29 = 1;
+x6.0 +x6.1 +x6.2 +x6.3 +x6.4 +x6.5 +x6.6 +x6.7 +x6.8 +x6.9 +x6.10 +x6.11 +x6.12 +x6.13 +x6.14 +x6.15 +x6.16 +x6.17 +x6.18 +x6.19 +x6.20 +x6.21 +x6.22 +x6.23 +x6.24 +x6.25 +x6.26 +x6.27 +x6.28 +x6.29 = 1;
+x7.0 +x7.1 +x7.2 +x7.3 +x7.4 +x7.5 +x7.6 +x7.7 +x7.8 +x7.9 +x7.10 +x7.11 +x7.12 +x7.13 +x7.14 +x7.15 +x7.16 +x7.17 +x7.18 +x7.19 +x7.20 +x7.21 +x7.22 +x7.23 +x7.24 +x7.25 +x7.26 +x7.27 +x7.28 +x7.29 = 1;
+x8.0 +x8.1 +x8.2 +x8.3 +x8.4 +x8.5 +x8.6 +x8.7 +x8.8 +x8.9 +x8.10 +x8.11 +x8.12 +x8.13 +x8.14 +x8.15 +x8.16 +x8.17 +x8.18 +x8.19 +x8.20 +x8.21 +x8.22 +x8.23 +x8.24 +x8.25 +x8.26 +x8.27 +x8.28 +x8.29 = 1;
+x9.0 +x9.1 +x9.2 +x9.3 +x9.4 +x9.5 +x9.6 +x9.7 +x9.8 +x9.9 +x9.10 +x9.11 +x9.12 +x9.13 +x9.14 +x9.15 +x9.16 +x9.17 +x9.18 +x9.19 +x9.20 +x9.21 +x9.22 +x9.23 +x9.24 +x9.25 +x9.26 +x9.27 +x9.28 +x9.29 = 1;
+x10.0 +x10.1 +x10.2 +x10.3 +x10.4 +x10.5 +x10.6 +x10.7 +x10.8 +x10.9 +x10.10 +x10.11 +x10.12 +x10.13 +x10.14 +x10.15 +x10.16 +x10.17 +x10.18 +x10.19 +x10.20 +x10.21 +x10.22 +x10.23 +x10.24 +x10.25 +x10.26 +x10.27 +x10.28 +x10.29 = 1;
+x11.0 +x11.1 +x11.2 +x11.3 +x11.4 +x11.5 +x11.6 +x11.7 +x11.8 +x11.9 +x11.10 +x11.11 +x11.12 +x11.13 +x11.14 +x11.15 +x11.16 +x11.17 +x11.18 +x11.19 +x11.20 +x11.21 +x11.22 +x11.23 +x11.24 +x11.25 +x11.26 +x11.27 +x11.28 +x11.29 = 1;
+x12.0 +x12.1 +x12.2 +x12.3 +x12.4 +x12.5 +x12.6 +x12.7 +x12.8 +x12.9 +x12.10 +x12.11 +x12.12 +x12.13 +x12.14 +x12.15 +x12.16 +x12.17 +x12.18 +x12.19 +x12.20 +x12.21 +x12.22 +x12.23 +x12.24 +x12.25 +x12.26 +x12.27 +x12.28 +x12.29 = 1;
+x13.0 +x13.1 +x13.2 +x13.3 +x13.4 +x13.5 +x13.6 +x13.7 +x13.8 +x13.9 +x13.10 +x13.11 +x13.12 +x13.13 +x13.14 +x13.15 +x13.16 +x13.17 +x13.18 +x13.19 +x13.20 +x13.21 +x13.22 +x13.23 +x13.24 +x13.25 +x13.26 +x13.27 +x13.28 +x13.29 = 1;
+x14.0 +x14.1 +x14.2 +x14.3 +x14.4 +x14.5 +x14.6 +x14.7 +x14.8 +x14.9 +x14.10 +x14.11 +x14.12 +x14.13 +x14.14 +x14.15 +x14.16 +x14.17 +x14.18 +x14.19 +x14.20 +x14.21 +x14.22 +x14.23 +x14.24 +x14.25 +x14.26 +x14.27 +x14.28 +x14.29 = 1;
+x15.0 +x15.1 +x15.2 +x15.3 +x15.4 +x15.5 +x15.6 +x15.7 +x15.8 +x15.9 +x15.10 +x15.11 +x15.12 +x15.13 +x15.14 +x15.15 +x15.16 +x15.17 +x15.18 +x15.19 +x15.20 +x15.21 +x15.22 +x15.23 +x15.24 +x15.25 +x15.26 +x15.27 +x15.28 +x15.29 = 1;
+x16.0 +x16.1 +x16.2 +x16.3 +x16.4 +x16.5 +x16.6 +x16.7 +x16.8 +x16.9 +x16.10 +x16.11 +x16.12 +x16.13 +x16.14 +x16.15 +x16.16 +x16.17 +x16.18 +x16.19 +x16.20 +x16.21 +x16.22 +x16.23 +x16.24 +x16.25 +x16.26 +x16.27 +x16.28 +x16.29 = 1;
+x17.0 +x17.1 +x17.2 +x17.3 +x17.4 +x17.5 +x17.6 +x17.7 +x17.8 +x17.9 +x17.10 +x17.11 +x17.12 +x17.13 +x17.14 +x17.15 +x17.16 +x17.17 +x17.18 +x17.19 +x17.20 +x17.21 +x17.22 +x17.23 +x17.24 +x17.25 +x17.26 +x17.27 +x17.28 +x17.29 = 1;
+x18.0 +x18.1 +x18.2 +x18.3 +x18.4 +x18.5 +x18.6 +x18.7 +x18.8 +x18.9 +x18.10 +x18.11 +x18.12 +x18.13 +x18.14 +x18.15 +x18.16 +x18.17 +x18.18 +x18.19 +x18.20 +x18.21 +x18.22 +x18.23 +x18.24 +x18.25 +x18.26 +x18.27 +x18.28 +x18.29 = 1;
+x19.0 +x19.1 +x19.2 +x19.3 +x19.4 +x19.5 +x19.6 +x19.7 +x19.8 +x19.9 +x19.10 +x19.11 +x19.12 +x19.13 +x19.14 +x19.15 +x19.16 +x19.17 +x19.18 +x19.19 +x19.20 +x19.21 +x19.22 +x19.23 +x19.24 +x19.25 +x19.26 +x19.27 +x19.28 +x19.29 = 1;
+x20.0 +x20.1 +x20.2 +x20.3 +x20.4 +x20.5 +x20.6 +x20.7 +x20.8 +x20.9 +x20.10 +x20.11 +x20.12 +x20.13 +x20.14 +x20.15 +x20.16 +x20.17 +x20.18 +x20.19 +x20.20 +x20.21 +x20.22 +x20.23 +x20.24 +x20.25 +x20.26 +x20.27 +x20.28 +x20.29 = 1;
+x21.0 +x21.1 +x21.2 +x21.3 +x21.4 +x21.5 +x21.6 +x21.7 +x21.8 +x21.9 +x21.10 +x21.11 +x21.12 +x21.13 +x21.14 +x21.15 +x21.16 +x21.17 +x21.18 +x21.19 +x21.20 +x21.21 +x21.22 +x21.23 +x21.24 +x21.25 +x21.26 +x21.27 +x21.28 +x21.29 = 1;
+x22.0 +x22.1 +x22.2 +x22.3 +x22.4 +x22.5 +x22.6 +x22.7 +x22.8 +x22.9 +x22.10 +x22.11 +x22.12 +x22.13 +x22.14 +x22.15 +x22.16 +x22.17 +x22.18 +x22.19 +x22.20 +x22.21 +x22.22 +x22.23 +x22.24 +x22.25 +x22.26 +x22.27 +x22.28 +x22.29 = 1;
+x23.0 +x23.1 +x23.2 +x23.3 +x23.4 +x23.5 +x23.6 +x23.7 +x23.8 +x23.9 +x23.10 +x23.11 +x23.12 +x23.13 +x23.14 +x23.15 +x23.16 +x23.17 +x23.18 +x23.19 +x23.20 +x23.21 +x23.22 +x23.23 +x23.24 +x23.25 +x23.26 +x23.27 +x23.28 +x23.29 = 1;
+x24.0 +x24.1 +x24.2 +x24.3 +x24.4 +x24.5 +x24.6 +x24.7 +x24.8 +x24.9 +x24.10 +x24.11 +x24.12 +x24.13 +x24.14 +x24.15 +x24.16 +x24.17 +x24.18 +x24.19 +x24.20 +x24.21 +x24.22 +x24.23 +x24.24 +x24.25 +x24.26 +x24.27 +x24.28 +x24.29 = 1;
+x25.0 +x25.1 +x25.2 +x25.3 +x25.4 +x25.5 +x25.6 +x25.7 +x25.8 +x25.9 +x25.10 +x25.11 +x25.12 +x25.13 +x25.14 +x25.15 +x25.16 +x25.17 +x25.18 +x25.19 +x25.20 +x25.21 +x25.22 +x25.23 +x25.24 +x25.25 +x25.26 +x25.27 +x25.28 +x25.29 = 1;
+x26.0 +x26.1 +x26.2 +x26.3 +x26.4 +x26.5 +x26.6 +x26.7 +x26.8 +x26.9 +x26.10 +x26.11 +x26.12 +x26.13 +x26.14 +x26.15 +x26.16 +x26.17 +x26.18 +x26.19 +x26.20 +x26.21 +x26.22 +x26.23 +x26.24 +x26.25 +x26.26 +x26.27 +x26.28 +x26.29 = 1;
+x27.0 +x27.1 +x27.2 +x27.3 +x27.4 +x27.5 +x27.6 +x27.7 +x27.8 +x27.9 +x27.10 +x27.11 +x27.12 +x27.13 +x27.14 +x27.15 +x27.16 +x27.17 +x27.18 +x27.19 +x27.20 +x27.21 +x27.22 +x27.23 +x27.24 +x27.25 +x27.26 +x27.27 +x27.28 +x27.29 = 1;
+x28.0 +x28.1 +x28.2 +x28.3 +x28.4 +x28.5 +x28.6 +x28.7 +x28.8 +x28.9 +x28.10 +x28.11 +x28.12 +x28.13 +x28.14 +x28.15 +x28.16 +x28.17 +x28.18 +x28.19 +x28.20 +x28.21 +x28.22 +x28.23 +x28.24 +x28.25 +x28.26 +x28.27 +x28.28 +x28.29 = 1;
+x29.0 +x29.1 +x29.2 +x29.3 +x29.4 +x29.5 +x29.6 +x29.7 +x29.8 +x29.9 +x29.10 +x29.11 +x29.12 +x29.13 +x29.14 +x29.15 +x29.16 +x29.17 +x29.18 +x29.19 +x29.20 +x29.21 +x29.22 +x29.23 +x29.24 +x29.25 +x29.26 +x29.27 +x29.28 +x29.29 = 1;
x0.0 <= y0;
x0.1 <= y1;
x0.2 <= y2;
x0.3 <= y3;
x0.4 <= y4;
x0.5 <= y5;
x0.6 <= y6;
x0.7 <= y7;
x0.8 <= y8;
x0.9 <= y9;
x0.10 <= y10;
x0.11 <= y11;
x0.12 <= y12;
x0.13 <= y13;
x0.14 <= y14;
x0.15 <= y15;
x0.16 <= y16;
x0.17 <= y17;
x0.18 <= y18;
x0.19 <= y19;
x0.20 <= y20;
x0.21 <= y21;
x0.22 <= y22;
x0.23 <= y23;
x0.24 <= y24;
x0.25 <= y25;
x0.26 <= y26;
x0.27 <= y27;
x0.28 <= y28;
x0.29 <= y29;
x1.0 <= y0;
x1.1 <= y1;
x1.2 <= y2;
x1.3 <= y3;
x1.4 <= y4;
x1.5 <= y5;
x1.6 <= y6;
x1.7 <= y7;
x1.8 <= y8;
x1.9 <= y9;
x1.10 <= y10;
x1.11 <= y11;
x1.12 <= y12;
x1.13 <= y13;
x1.14 <= y14;
x1.15 <= y15;
x1.16 <= y16;
x1.17 <= y17;
x1.18 <= y18;
x1.19 <= y19;
x1.20 <= y20;
x1.21 <= y21;
x1.22 <= y22;
x1.23 <= y23;
x1.24 <= y24;
x1.25 <= y25;
x1.26 <= y26;
x1.27 <= y27;
x1.28 <= y28;
x1.29 <= y29;
x2.0 <= y0;
x2.1 <= y1;
x2.2 <= y2;
x2.3 <= y3;
x2.4 <= y4;
x2.5 <= y5;
x2.6 <= y6;
x2.7 <= y7;
x2.8 <= y8;
x2.9 <= y9;
x2.10 <= y10;
x2.11 <= y11;
x2.12 <= y12;
x2.13 <= y13;
x2.14 <= y14;
x2.15 <= y15;
x2.16 <= y16;
x2.17 <= y17;
x2.18 <= y18;
x2.19 <= y19;
x2.20 <= y20;
x2.21 <= y21;
x2.22 <= y22;
x2.23 <= y23;
x2.24 <= y24;
x2.25 <= y25;
x2.26 <= y26;
x2.27 <= y27;
x2.28 <= y28;
x2.29 <= y29;
x3.0 <= y0;
x3.1 <= y1;
x3.2 <= y2;
x3.3 <= y3;
x3.4 <= y4;
x3.5 <= y5;
x3.6 <= y6;
x3.7 <= y7;
x3.8 <= y8;
x3.9 <= y9;
x3.10 <= y10;
x3.11 <= y11;
x3.12 <= y12;
x3.13 <= y13;
x3.14 <= y14;
x3.15 <= y15;
x3.16 <= y16;
x3.17 <= y17;
x3.18 <= y18;
x3.19 <= y19;
x3.20 <= y20;
x3.21 <= y21;
x3.22 <= y22;
x3.23 <= y23;
x3.24 <= y24;
x3.25 <= y25;
x3.26 <= y26;
x3.27 <= y27;
x3.28 <= y28;
x3.29 <= y29;
x4.0 <= y0;
x4.1 <= y1;
x4.2 <= y2;
x4.3 <= y3;
x4.4 <= y4;
x4.5 <= y5;
x4.6 <= y6;
x4.7 <= y7;
x4.8 <= y8;
x4.9 <= y9;
x4.10 <= y10;
x4.11 <= y11;
x4.12 <= y12;
x4.13 <= y13;
x4.14 <= y14;
x4.15 <= y15;
x4.16 <= y16;
x4.17 <= y17;
x4.18 <= y18;
x4.19 <= y19;
x4.20 <= y20;
x4.21 <= y21;
x4.22 <= y22;
x4.23 <= y23;
x4.24 <= y24;
x4.25 <= y25;
x4.26 <= y26;
x4.27 <= y27;
x4.28 <= y28;
x4.29 <= y29;
x5.0 <= y0;
x5.1 <= y1;
x5.2 <= y2;
x5.3 <= y3;
x5.4 <= y4;
x5.5 <= y5;
x5.6 <= y6;
x5.7 <= y7;
x5.8 <= y8;
x5.9 <= y9;
x5.10 <= y10;
x5.11 <= y11;
x5.12 <= y12;
x5.13 <= y13;
x5.14 <= y14;
x5.15 <= y15;
x5.16 <= y16;
x5.17 <= y17;
x5.18 <= y18;
x5.19 <= y19;
x5.20 <= y20;
x5.21 <= y21;
x5.22 <= y22;
x5.23 <= y23;
x5.24 <= y24;
x5.25 <= y25;
x5.26 <= y26;
x5.27 <= y27;
x5.28 <= y28;
x5.29 <= y29;
x6.0 <= y0;
x6.1 <= y1;
x6.2 <= y2;
x6.3 <= y3;
x6.4 <= y4;
x6.5 <= y5;
x6.6 <= y6;
x6.7 <= y7;
x6.8 <= y8;
x6.9 <= y9;
x6.10 <= y10;
x6.11 <= y11;
x6.12 <= y12;
x6.13 <= y13;
x6.14 <= y14;
x6.15 <= y15;
x6.16 <= y16;
x6.17 <= y17;
x6.18 <= y18;
x6.19 <= y19;
x6.20 <= y20;
x6.21 <= y21;
x6.22 <= y22;
x6.23 <= y23;
x6.24 <= y24;
x6.25 <= y25;
x6.26 <= y26;
x6.27 <= y27;
x6.28 <= y28;
x6.29 <= y29;
x7.0 <= y0;
x7.1 <= y1;
x7.2 <= y2;
x7.3 <= y3;
x7.4 <= y4;
x7.5 <= y5;
x7.6 <= y6;
x7.7 <= y7;
x7.8 <= y8;
x7.9 <= y9;
x7.10 <= y10;
x7.11 <= y11;
x7.12 <= y12;
x7.13 <= y13;
x7.14 <= y14;
x7.15 <= y15;
x7.16 <= y16;
x7.17 <= y17;
x7.18 <= y18;
x7.19 <= y19;
x7.20 <= y20;
x7.21 <= y21;
x7.22 <= y22;
x7.23 <= y23;
x7.24 <= y24;
x7.25 <= y25;
x7.26 <= y26;
x7.27 <= y27;
x7.28 <= y28;
x7.29 <= y29;
x8.0 <= y0;
x8.1 <= y1;
x8.2 <= y2;
x8.3 <= y3;
x8.4 <= y4;
x8.5 <= y5;
x8.6 <= y6;
x8.7 <= y7;
x8.8 <= y8;
x8.9 <= y9;
x8.10 <= y10;
x8.11 <= y11;
x8.12 <= y12;
x8.13 <= y13;
x8.14 <= y14;
x8.15 <= y15;
x8.16 <= y16;
x8.17 <= y17;
x8.18 <= y18;
x8.19 <= y19;
x8.20 <= y20;
x8.21 <= y21;
x8.22 <= y22;
x8.23 <= y23;
x8.24 <= y24;
x8.25 <= y25;
x8.26 <= y26;
x8.27 <= y27;
x8.28 <= y28;
x8.29 <= y29;
x9.0 <= y0;
x9.1 <= y1;
x9.2 <= y2;
x9.3 <= y3;
x9.4 <= y4;
x9.5 <= y5;
x9.6 <= y6;
x9.7 <= y7;
x9.8 <= y8;
x9.9 <= y9;
x9.10 <= y10;
x9.11 <= y11;
x9.12 <= y12;
x9.13 <= y13;
x9.14 <= y14;
x9.15 <= y15;
x9.16 <= y16;
x9.17 <= y17;
x9.18 <= y18;
x9.19 <= y19;
x9.20 <= y20;
x9.21 <= y21;
x9.22 <= y22;
x9.23 <= y23;
x9.24 <= y24;
x9.25 <= y25;
x9.26 <= y26;
x9.27 <= y27;
x9.28 <= y28;
x9.29 <= y29;
x10.0 <= y0;
x10.1 <= y1;
x10.2 <= y2;
x10.3 <= y3;
x10.4 <= y4;
x10.5 <= y5;
x10.6 <= y6;
x10.7 <= y7;
x10.8 <= y8;
x10.9 <= y9;
x10.10 <= y10;
x10.11 <= y11;
x10.12 <= y12;
x10.13 <= y13;
x10.14 <= y14;
x10.15 <= y15;
x10.16 <= y16;
x10.17 <= y17;
x10.18 <= y18;
x10.19 <= y19;
x10.20 <= y20;
x10.21 <= y21;
x10.22 <= y22;
x10.23 <= y23;
x10.24 <= y24;
x10.25 <= y25;
x10.26 <= y26;
x10.27 <= y27;
x10.28 <= y28;
x10.29 <= y29;
x11.0 <= y0;
x11.1 <= y1;
x11.2 <= y2;
x11.3 <= y3;
x11.4 <= y4;
x11.5 <= y5;
x11.6 <= y6;
x11.7 <= y7;
x11.8 <= y8;
x11.9 <= y9;
x11.10 <= y10;
x11.11 <= y11;
x11.12 <= y12;
x11.13 <= y13;
x11.14 <= y14;
x11.15 <= y15;
x11.16 <= y16;
x11.17 <= y17;
x11.18 <= y18;
x11.19 <= y19;
x11.20 <= y20;
x11.21 <= y21;
x11.22 <= y22;
x11.23 <= y23;
x11.24 <= y24;
x11.25 <= y25;
x11.26 <= y26;
x11.27 <= y27;
x11.28 <= y28;
x11.29 <= y29;
x12.0 <= y0;
x12.1 <= y1;
x12.2 <= y2;
x12.3 <= y3;
x12.4 <= y4;
x12.5 <= y5;
x12.6 <= y6;
x12.7 <= y7;
x12.8 <= y8;
x12.9 <= y9;
x12.10 <= y10;
x12.11 <= y11;
x12.12 <= y12;
x12.13 <= y13;
x12.14 <= y14;
x12.15 <= y15;
x12.16 <= y16;
x12.17 <= y17;
x12.18 <= y18;
x12.19 <= y19;
x12.20 <= y20;
x12.21 <= y21;
x12.22 <= y22;
x12.23 <= y23;
x12.24 <= y24;
x12.25 <= y25;
x12.26 <= y26;
x12.27 <= y27;
x12.28 <= y28;
x12.29 <= y29;
x13.0 <= y0;
x13.1 <= y1;
x13.2 <= y2;
x13.3 <= y3;
x13.4 <= y4;
x13.5 <= y5;
x13.6 <= y6;
x13.7 <= y7;
x13.8 <= y8;
x13.9 <= y9;
x13.10 <= y10;
x13.11 <= y11;
x13.12 <= y12;
x13.13 <= y13;
x13.14 <= y14;
x13.15 <= y15;
x13.16 <= y16;
x13.17 <= y17;
x13.18 <= y18;
x13.19 <= y19;
x13.20 <= y20;
x13.21 <= y21;
x13.22 <= y22;
x13.23 <= y23;
x13.24 <= y24;
x13.25 <= y25;
x13.26 <= y26;
x13.27 <= y27;
x13.28 <= y28;
x13.29 <= y29;
x14.0 <= y0;
x14.1 <= y1;
x14.2 <= y2;
x14.3 <= y3;
x14.4 <= y4;
x14.5 <= y5;
x14.6 <= y6;
x14.7 <= y7;
x14.8 <= y8;
x14.9 <= y9;
x14.10 <= y10;
x14.11 <= y11;
x14.12 <= y12;
x14.13 <= y13;
x14.14 <= y14;
x14.15 <= y15;
x14.16 <= y16;
x14.17 <= y17;
x14.18 <= y18;
x14.19 <= y19;
x14.20 <= y20;
x14.21 <= y21;
x14.22 <= y22;
x14.23 <= y23;
x14.24 <= y24;
x14.25 <= y25;
x14.26 <= y26;
x14.27 <= y27;
x14.28 <= y28;
x14.29 <= y29;
x15.0 <= y0;
x15.1 <= y1;
x15.2 <= y2;
x15.3 <= y3;
x15.4 <= y4;
x15.5 <= y5;
x15.6 <= y6;
x15.7 <= y7;
x15.8 <= y8;
x15.9 <= y9;
x15.10 <= y10;
x15.11 <= y11;
x15.12 <= y12;
x15.13 <= y13;
x15.14 <= y14;
x15.15 <= y15;
x15.16 <= y16;
x15.17 <= y17;
x15.18 <= y18;
x15.19 <= y19;
x15.20 <= y20;
x15.21 <= y21;
x15.22 <= y22;
x15.23 <= y23;
x15.24 <= y24;
x15.25 <= y25;
x15.26 <= y26;
x15.27 <= y27;
x15.28 <= y28;
x15.29 <= y29;
x16.0 <= y0;
x16.1 <= y1;
x16.2 <= y2;
x16.3 <= y3;
x16.4 <= y4;
x16.5 <= y5;
x16.6 <= y6;
x16.7 <= y7;
x16.8 <= y8;
x16.9 <= y9;
x16.10 <= y10;
x16.11 <= y11;
x16.12 <= y12;
x16.13 <= y13;
x16.14 <= y14;
x16.15 <= y15;
x16.16 <= y16;
x16.17 <= y17;
x16.18 <= y18;
x16.19 <= y19;
x16.20 <= y20;
x16.21 <= y21;
x16.22 <= y22;
x16.23 <= y23;
x16.24 <= y24;
x16.25 <= y25;
x16.26 <= y26;
x16.27 <= y27;
x16.28 <= y28;
x16.29 <= y29;
x17.0 <= y0;
x17.1 <= y1;
x17.2 <= y2;
x17.3 <= y3;
x17.4 <= y4;
x17.5 <= y5;
x17.6 <= y6;
x17.7 <= y7;
x17.8 <= y8;
x17.9 <= y9;
x17.10 <= y10;
x17.11 <= y11;
x17.12 <= y12;
x17.13 <= y13;
x17.14 <= y14;
x17.15 <= y15;
x17.16 <= y16;
x17.17 <= y17;
x17.18 <= y18;
x17.19 <= y19;
x17.20 <= y20;
x17.21 <= y21;
x17.22 <= y22;
x17.23 <= y23;
x17.24 <= y24;
x17.25 <= y25;
x17.26 <= y26;
x17.27 <= y27;
x17.28 <= y28;
x17.29 <= y29;
x18.0 <= y0;
x18.1 <= y1;
x18.2 <= y2;
x18.3 <= y3;
x18.4 <= y4;
x18.5 <= y5;
x18.6 <= y6;
x18.7 <= y7;
x18.8 <= y8;
x18.9 <= y9;
x18.10 <= y10;
x18.11 <= y11;
x18.12 <= y12;
x18.13 <= y13;
x18.14 <= y14;
x18.15 <= y15;
x18.16 <= y16;
x18.17 <= y17;
x18.18 <= y18;
x18.19 <= y19;
x18.20 <= y20;
x18.21 <= y21;
x18.22 <= y22;
x18.23 <= y23;
x18.24 <= y24;
x18.25 <= y25;
x18.26 <= y26;
x18.27 <= y27;
x18.28 <= y28;
x18.29 <= y29;
x19.0 <= y0;
x19.1 <= y1;
x19.2 <= y2;
x19.3 <= y3;
x19.4 <= y4;
x19.5 <= y5;
x19.6 <= y6;
x19.7 <= y7;
x19.8 <= y8;
x19.9 <= y9;
x19.10 <= y10;
x19.11 <= y11;
x19.12 <= y12;
x19.13 <= y13;
x19.14 <= y14;
x19.15 <= y15;
x19.16 <= y16;
x19.17 <= y17;
x19.18 <= y18;
x19.19 <= y19;
x19.20 <= y20;
x19.21 <= y21;
x19.22 <= y22;
x19.23 <= y23;
x19.24 <= y24;
x19.25 <= y25;
x19.26 <= y26;
x19.27 <= y27;
x19.28 <= y28;
x19.29 <= y29;
x20.0 <= y0;
x20.1 <= y1;
x20.2 <= y2;
x20.3 <= y3;
x20.4 <= y4;
x20.5 <= y5;
x20.6 <= y6;
x20.7 <= y7;
x20.8 <= y8;
x20.9 <= y9;
x20.10 <= y10;
x20.11 <= y11;
x20.12 <= y12;
x20.13 <= y13;
x20.14 <= y14;
x20.15 <= y15;
x20.16 <= y16;
x20.17 <= y17;
x20.18 <= y18;
x20.19 <= y19;
x20.20 <= y20;
x20.21 <= y21;
x20.22 <= y22;
x20.23 <= y23;
x20.24 <= y24;
x20.25 <= y25;
x20.26 <= y26;
x20.27 <= y27;
x20.28 <= y28;
x20.29 <= y29;
x21.0 <= y0;
x21.1 <= y1;
x21.2 <= y2;
x21.3 <= y3;
x21.4 <= y4;
x21.5 <= y5;
x21.6 <= y6;
x21.7 <= y7;
x21.8 <= y8;
x21.9 <= y9;
x21.10 <= y10;
x21.11 <= y11;
x21.12 <= y12;
x21.13 <= y13;
x21.14 <= y14;
x21.15 <= y15;
x21.16 <= y16;
x21.17 <= y17;
x21.18 <= y18;
x21.19 <= y19;
x21.20 <= y20;
x21.21 <= y21;
x21.22 <= y22;
x21.23 <= y23;
x21.24 <= y24;
x21.25 <= y25;
x21.26 <= y26;
x21.27 <= y27;
x21.28 <= y28;
x21.29 <= y29;
x22.0 <= y0;
x22.1 <= y1;
x22.2 <= y2;
x22.3 <= y3;
x22.4 <= y4;
x22.5 <= y5;
x22.6 <= y6;
x22.7 <= y7;
x22.8 <= y8;
x22.9 <= y9;
x22.10 <= y10;
x22.11 <= y11;
x22.12 <= y12;
x22.13 <= y13;
x22.14 <= y14;
x22.15 <= y15;
x22.16 <= y16;
x22.17 <= y17;
x22.18 <= y18;
x22.19 <= y19;
x22.20 <= y20;
x22.21 <= y21;
x22.22 <= y22;
x22.23 <= y23;
x22.24 <= y24;
x22.25 <= y25;
x22.26 <= y26;
x22.27 <= y27;
x22.28 <= y28;
x22.29 <= y29;
x23.0 <= y0;
x23.1 <= y1;
x23.2 <= y2;
x23.3 <= y3;
x23.4 <= y4;
x23.5 <= y5;
x23.6 <= y6;
x23.7 <= y7;
x23.8 <= y8;
x23.9 <= y9;
x23.10 <= y10;
x23.11 <= y11;
x23.12 <= y12;
x23.13 <= y13;
x23.14 <= y14;
x23.15 <= y15;
x23.16 <= y16;
x23.17 <= y17;
x23.18 <= y18;
x23.19 <= y19;
x23.20 <= y20;
x23.21 <= y21;
x23.22 <= y22;
x23.23 <= y23;
x23.24 <= y24;
x23.25 <= y25;
x23.26 <= y26;
x23.27 <= y27;
x23.28 <= y28;
x23.29 <= y29;
x24.0 <= y0;
x24.1 <= y1;
x24.2 <= y2;
x24.3 <= y3;
x24.4 <= y4;
x24.5 <= y5;
x24.6 <= y6;
x24.7 <= y7;
x24.8 <= y8;
x24.9 <= y9;
x24.10 <= y10;
x24.11 <= y11;
x24.12 <= y12;
x24.13 <= y13;
x24.14 <= y14;
x24.15 <= y15;
x24.16 <= y16;
x24.17 <= y17;
x24.18 <= y18;
x24.19 <= y19;
x24.20 <= y20;
x24.21 <= y21;
x24.22 <= y22;
x24.23 <= y23;
x24.24 <= y24;
x24.25 <= y25;
x24.26 <= y26;
x24.27 <= y27;
x24.28 <= y28;
x24.29 <= y29;
x25.0 <= y0;
x25.1 <= y1;
x25.2 <= y2;
x25.3 <= y3;
x25.4 <= y4;
x25.5 <= y5;
x25.6 <= y6;
x25.7 <= y7;
x25.8 <= y8;
x25.9 <= y9;
x25.10 <= y10;
x25.11 <= y11;
x25.12 <= y12;
x25.13 <= y13;
x25.14 <= y14;
x25.15 <= y15;
x25.16 <= y16;
x25.17 <= y17;
x25.18 <= y18;
x25.19 <= y19;
x25.20 <= y20;
x25.21 <= y21;
x25.22 <= y22;
x25.23 <= y23;
x25.24 <= y24;
x25.25 <= y25;
x25.26 <= y26;
x25.27 <= y27;
x25.28 <= y28;
x25.29 <= y29;
x26.0 <= y0;
x26.1 <= y1;
x26.2 <= y2;
x26.3 <= y3;
x26.4 <= y4;
x26.5 <= y5;
x26.6 <= y6;
x26.7 <= y7;
x26.8 <= y8;
x26.9 <= y9;
x26.10 <= y10;
x26.11 <= y11;
x26.12 <= y12;
x26.13 <= y13;
x26.14 <= y14;
x26.15 <= y15;
x26.16 <= y16;
x26.17 <= y17;
x26.18 <= y18;
x26.19 <= y19;
x26.20 <= y20;
x26.21 <= y21;
x26.22 <= y22;
x26.23 <= y23;
x26.24 <= y24;
x26.25 <= y25;
x26.26 <= y26;
x26.27 <= y27;
x26.28 <= y28;
x26.29 <= y29;
x27.0 <= y0;
x27.1 <= y1;
x27.2 <= y2;
x27.3 <= y3;
x27.4 <= y4;
x27.5 <= y5;
x27.6 <= y6;
x27.7 <= y7;
x27.8 <= y8;
x27.9 <= y9;
x27.10 <= y10;
x27.11 <= y11;
x27.12 <= y12;
x27.13 <= y13;
x27.14 <= y14;
x27.15 <= y15;
x27.16 <= y16;
x27.17 <= y17;
x27.18 <= y18;
x27.19 <= y19;
x27.20 <= y20;
x27.21 <= y21;
x27.22 <= y22;
x27.23 <= y23;
x27.24 <= y24;
x27.25 <= y25;
x27.26 <= y26;
x27.27 <= y27;
x27.28 <= y28;
x27.29 <= y29;
x28.0 <= y0;
x28.1 <= y1;
x28.2 <= y2;
x28.3 <= y3;
x28.4 <= y4;
x28.5 <= y5;
x28.6 <= y6;
x28.7 <= y7;
x28.8 <= y8;
x28.9 <= y9;
x28.10 <= y10;
x28.11 <= y11;
x28.12 <= y12;
x28.13 <= y13;
x28.14 <= y14;
x28.15 <= y15;
x28.16 <= y16;
x28.17 <= y17;
x28.18 <= y18;
x28.19 <= y19;
x28.20 <= y20;
x28.21 <= y21;
x28.22 <= y22;
x28.23 <= y23;
x28.24 <= y24;
x28.25 <= y25;
x28.26 <= y26;
x28.27 <= y27;
x28.28 <= y28;
x28.29 <= y29;
x29.0 <= y0;
x29.1 <= y1;
x29.2 <= y2;
x29.3 <= y3;
x29.4 <= y4;
x29.5 <= y5;
x29.6 <= y6;
x29.7 <= y7;
x29.8 <= y8;
x29.9 <= y9;
x29.10 <= y10;
x29.11 <= y11;
x29.12 <= y12;
x29.13 <= y13;
x29.14 <= y14;
x29.15 <= y15;
x29.16 <= y16;
x29.17 <= y17;
x29.18 <= y18;
x29.19 <= y19;
x29.20 <= y20;
x29.21 <= y21;
x29.22 <= y22;
x29.23 <= y23;
x29.24 <= y24;
x29.25 <= y25;
x29.26 <= y26;
x29.27 <= y27;
x29.28 <= y28;
x29.29 <= y29;
 z +0x0.0 -16x0.1 -32x0.2 -35x0.3 -13x0.4 -22x0.5 -37x0.6 -15x0.7 -27x0.8 -37x0.9 -39x0.10 -26x0.11 -38x0.12 -31x0.13 -21x0.14 -37x0.15 -22x0.16 -45x0.17 -25x0.18 -52x0.19 -38x0.20 -10x0.21 -38x0.22 -34x0.23 -37x0.24 -26x0.25 -12x0.26 -31x0.27 -25x0.28 -36x0.29  >= 0;
 z -16x1.0 +0x1.1 -44x1.2 -30x1.3 -29x1.4 -38x1.5 -33x1.6 -26x1.7 -41x1.8 -21x1.9 -55x1.10 -37x1.11 -40x1.12 -47x1.13 -37x1.14 -53x1.15 -23x1.16 -53x1.17 -36x1.18 -62x1.19 -54x1.20 -26x1.21 -49x1.22 -33x1.23 -21x1.24 -10x1.25 -28x1.26 -24x1.27 -36x1.28 -20x1.29  >= 0;
 z -32x2.0 -44x2.1 +0x2.2 -30x2.3 -39x2.4 -10x2.5 -35x2.6 -29x2.7 -43x2.8 -23x2.9 -52x2.10 -40x2.11 -14x2.12 -19x2.13 -53x2.14 -40x2.15 -37x2.16 -39x2.17 -39x2.18 -31x2.19 -47x2.20 -40x2.21 -12x2.22 -53x2.23 -58x2.24 -38x2.25 -27x2.26 -39x2.27 -39x2.28 -28x2.29  >= 0;
 z -35x3.0 -30x3.1 -30x3.2 +0x3.3 -22x3.4 -28x3.5 -26x3.6 -25x3.7 -23x3.8 -14x3.9 -52x3.10 -33x3.11 -16x3.12 -41x3.13 -43x3.14 -27x3.15 -33x3.16 -23x3.17 -15x3.18 -39x3.19 -47x3.20 -45x3.21 -19x3.22 -40x3.23 -42x3.24 -20x3.25 -32x3.26 -21x3.27 -35x3.28 -10x3.29  >= 0;
 z -13x4.0 -29x4.1 -39x4.2 -22x4.3 +0x4.4 -35x4.5 -42x4.6 -28x4.7 -14x4.8 -36x4.9 -49x4.10 -39x4.11 -25x4.12 -44x4.13 -34x4.14 -24x4.15 -25x4.16 -45x4.17 -37x4.18 -61x4.19 -25x4.20 -23x4.21 -41x4.22 -47x4.23 -43x4.24 -38x4.25 -25x4.26 -43x4.27 -38x4.28 -32x4.29  >= 0;
 z -22x5.0 -38x5.1 -10x5.2 -28x5.3 -35x5.4 +0x5.5 -44x5.6 -37x5.7 -44x5.8 -33x5.9 -56x5.10 -48x5.11 -24x5.12 -29x5.13 -43x5.14 -30x5.15 -27x5.16 -49x5.17 -43x5.18 -41x5.19 -45x5.20 -32x5.21 -18x5.22 -56x5.23 -59x5.24 -40x5.25 -17x5.26 -36x5.27 -39x5.28 -38x5.29  >= 0;
 z -37x6.0 -33x6.1 -35x6.2 -26x6.3 -42x6.4 -44x6.5 +0x6.6 -22x6.7 -35x6.8 -12x6.9 -52x6.10 -33x6.11 -42x6.12 -39x6.13 -47x6.14 -53x6.15 -17x6.16 -49x6.17 -32x6.18 -59x6.19 -55x6.20 -47x6.21 -45x6.22 -53x6.23 -54x6.24 -30x6.25 -27x6.26 -43x6.27 -32x6.28 -36x6.29  >= 0;
 z -15x7.0 -26x7.1 -29x7.2 -25x7.3 -28x7.4 -37x7.5 -22x7.6 +0x7.7 -42x7.8 -34x7.9 -30x7.10 -11x7.11 -41x7.12 -38x7.13 -36x7.14 -52x7.15 -37x7.16 -30x7.17 -10x7.18 -37x7.19 -53x7.20 -25x7.21 -41x7.22 -49x7.23 -37x7.24 -36x7.25 -27x7.26 -46x7.27 -10x7.28 -35x7.29  >= 0;
 z -27x8.0 -41x8.1 -43x8.2 -23x8.3 -14x8.4 -44x8.5 -35x8.6 -42x8.7 +0x8.8 -37x8.9 -35x8.10 -53x8.11 -34x8.12 -30x8.13 -48x8.14 -38x8.15 -18x8.16 -44x8.17 -38x8.18 -60x8.19 -39x8.20 -37x8.21 -42x8.22 -54x8.23 -29x8.24 -31x8.25 -28x8.26 -44x8.27 -52x8.28 -33x8.29  >= 0;
 z -37x9.0 -21x9.1 -23x9.2 -14x9.3 -36x9.4 -33x9.5 -12x9.6 -34x9.7 -37x9.8 +0x9.9 -51x9.10 -32x9.11 -30x9.12 -27x9.13 -57x9.14 -41x9.15 -29x9.16 -37x9.17 -29x9.18 -53x9.19 -61x9.20 -47x9.21 -33x9.22 -54x9.23 -42x9.24 -31x9.25 -39x9.26 -35x9.27 -44x9.28 -24x9.29  >= 0;
 z -39x10.0 -55x10.1 -52x10.2 -52x10.3 -49x10.4 -56x10.5 -52x10.6 -30x10.7 -35x10.8 -51x10.9 +0x10.10 -19x10.11 -66x10.12 -58x10.13 -60x10.14 -46x10.15 -53x10.16 -38x10.17 -37x10.18 -45x10.19 -73x10.20 -49x10.21 -40x10.22 -29x10.23 -64x10.24 -52x10.25 -51x10.26 -66x10.27 -40x10.28 -62x10.29  >= 0;
 z -26x11.0 -37x11.1 -40x11.2 -33x11.3 -39x11.4 -48x11.5 -33x11.6 -11x11.7 -53x11.8 -32x11.9 -19x11.10 +0x11.11 -49x11.12 -39x11.13 -47x11.14 -60x11.15 -48x11.16 -19x11.17 -18x11.18 -26x11.19 -64x11.20 -36x11.21 -31x11.22 -48x11.23 -45x11.24 -47x11.25 -38x11.26 -54x11.27 -21x11.28 -43x11.29  >= 0;
 z -38x12.0 -40x12.1 -14x12.2 -16x12.3 -25x12.4 -24x12.5 -42x12.6 -41x12.7 -34x12.8 -30x12.9 -66x12.10 -49x12.11 +0x12.12 -33x12.13 -59x12.14 -43x12.15 -49x12.16 -39x12.17 -31x12.18 -45x12.19 -50x12.20 -30x12.21 -26x12.22 -56x12.23 -58x12.24 -36x12.25 -41x12.26 -37x12.27 -51x12.28 -26x12.29  >= 0;
 z -31x13.0 -47x13.1 -19x13.2 -41x13.3 -44x13.4 -29x13.5 -39x13.6 -38x13.7 -30x13.8 -27x13.9 -58x13.10 -39x13.11 -33x13.12 +0x13.13 -44x13.14 -28x13.15 -48x13.16 -20x13.17 -43x13.18 -36x13.19 -66x13.20 -21x13.21 -31x13.22 -59x13.23 -39x13.24 -57x13.25 -43x13.26 -57x13.27 -28x13.28 -47x13.29  >= 0;
 z -21x14.0 -37x14.1 -53x14.2 -43x14.3 -34x14.4 -43x14.5 -47x14.6 -36x14.7 -48x14.8 -57x14.9 -60x14.10 -47x14.11 -59x14.12 -44x14.13 +0x14.14 -16x14.15 -30x14.16 -56x14.17 -46x14.18 -46x14.19 -34x14.20 -31x14.21 -58x14.22 -55x14.23 -58x14.24 -43x14.25 -32x14.26 -51x14.27 -46x14.28 -53x14.29  >= 0;
 z -37x15.0 -53x15.1 -40x15.2 -27x15.3 -24x15.4 -30x15.5 -53x15.6 -52x15.7 -38x15.8 -41x15.9 -46x15.10 -60x15.11 -43x15.12 -28x15.13 -16x15.14 +0x15.15 -46x15.16 -48x15.17 -42x15.18 -62x15.19 -49x15.20 -47x15.21 -46x15.22 -67x15.23 -67x15.24 -47x15.25 -47x15.26 -48x15.27 -56x15.28 -37x15.29  >= 0;
 z -22x16.0 -23x16.1 -37x16.2 -33x16.3 -25x16.4 -27x16.5 -17x16.6 -37x16.7 -18x16.8 -29x16.9 -53x16.10 -48x16.11 -49x16.12 -48x16.13 -30x16.14 -46x16.15 +0x16.16 -53x16.17 -41x16.18 -65x16.19 -38x16.20 -32x16.21 -36x16.22 -36x16.23 -44x16.24 -13x16.25 -10x16.26 -26x16.27 -47x16.28 -23x16.29  >= 0;
 z -45x17.0 -53x17.1 -39x17.2 -23x17.3 -45x17.4 -49x17.5 -49x17.6 -30x17.7 -44x17.8 -37x17.9 -38x17.10 -19x17.11 -39x17.12 -20x17.13 -56x17.14 -48x17.15 -53x17.16 +0x17.17 -37x17.18 -16x17.19 -70x17.20 -41x17.21 -42x17.22 -45x17.23 -59x17.24 -43x17.25 -55x17.26 -44x17.27 -40x17.28 -33x17.29  >= 0;
 z -25x18.0 -36x18.1 -39x18.2 -15x18.3 -37x18.4 -43x18.5 -32x18.6 -10x18.7 -38x18.8 -29x18.9 -37x18.10 -18x18.11 -31x18.12 -43x18.13 -46x18.14 -42x18.15 -41x18.16 -37x18.17 +0x18.18 -44x18.19 -55x18.20 -35x18.21 -34x18.22 -55x18.23 -27x18.24 -35x18.25 -31x18.26 -36x18.27 -20x18.28 -25x18.29  >= 0;
 z -52x19.0 -62x19.1 -31x19.2 -39x19.3 -61x19.4 -41x19.5 -59x19.6 -37x19.7 -60x19.8 -53x19.9 -45x19.10 -26x19.11 -45x19.12 -36x19.13 -46x19.14 -62x19.15 -65x19.16 -16x19.17 -44x19.18 +0x19.19 -78x19.20 -57x19.21 -43x19.22 -61x19.23 -71x19.24 -52x19.25 -58x19.26 -60x19.27 -47x19.28 -49x19.29  >= 0;
 z -38x20.0 -54x20.1 -47x20.2 -47x20.3 -25x20.4 -45x20.5 -55x20.6 -53x20.7 -39x20.8 -61x20.9 -73x20.10 -64x20.11 -50x20.12 -66x20.13 -34x20.14 -49x20.15 -38x20.16 -70x20.17 -55x20.18 -78x20.19 +0x20.20 -48x20.21 -35x20.22 -44x20.23 -68x20.24 -51x20.25 -28x20.26 -47x20.27 -63x20.28 -57x20.29  >= 0;
 z -10x21.0 -26x21.1 -40x21.2 -45x21.3 -23x21.4 -32x21.5 -47x21.6 -25x21.7 -37x21.8 -47x21.9 -49x21.10 -36x21.11 -30x21.12 -21x21.13 -31x21.14 -47x21.15 -32x21.16 -41x21.17 -35x21.18 -57x21.19 -48x21.20 +0x21.21 -48x21.22 -44x21.23 -47x21.24 -36x21.25 -22x21.26 -36x21.27 -35x21.28 -46x21.29  >= 0;
 z -38x22.0 -49x22.1 -12x22.2 -19x22.3 -41x22.4 -18x22.5 -45x22.6 -41x22.7 -42x22.8 -33x22.9 -40x22.10 -31x22.11 -26x22.12 -31x22.13 -58x22.14 -46x22.15 -36x22.16 -42x22.17 -34x22.18 -43x22.19 -35x22.20 -48x22.21 +0x22.22 -41x22.23 -61x22.24 -39x22.25 -26x22.26 -40x22.27 -47x22.28 -29x22.29  >= 0;
 z -34x23.0 -33x23.1 -53x23.2 -40x23.3 -47x23.4 -56x23.5 -53x23.6 -49x23.7 -54x23.8 -54x23.9 -29x23.10 -48x23.11 -56x23.12 -59x23.13 -55x23.14 -67x23.15 -36x23.16 -45x23.17 -55x23.18 -61x23.19 -44x23.20 -44x23.21 -41x23.22 +0x23.23 -54x23.24 -23x23.25 -46x23.26 -37x23.27 -59x23.28 -33x23.29  >= 0;
 z -37x24.0 -21x24.1 -58x24.2 -42x24.3 -43x24.4 -59x24.5 -54x24.6 -37x24.7 -29x24.8 -42x24.9 -64x24.10 -45x24.11 -58x24.12 -39x24.13 -58x24.14 -67x24.15 -44x24.16 -59x24.17 -27x24.18 -71x24.19 -68x24.20 -47x24.21 -61x24.22 -54x24.23 +0x24.24 -31x24.25 -49x24.26 -45x24.27 -47x24.28 -41x24.29  >= 0;
 z -26x25.0 -10x25.1 -38x25.2 -20x25.3 -38x25.4 -40x25.5 -30x25.6 -36x25.7 -31x25.8 -31x25.9 -52x25.10 -47x25.11 -36x25.12 -57x25.13 -43x25.14 -47x25.15 -13x25.16 -43x25.17 -35x25.18 -52x25.19 -51x25.20 -36x25.21 -39x25.22 -23x25.23 -31x25.24 +0x25.25 -23x25.26 -14x25.27 -46x25.28 -10x25.29  >= 0;
 z -12x26.0 -28x26.1 -27x26.2 -32x26.3 -25x26.4 -17x26.5 -27x26.6 -27x26.7 -28x26.8 -39x26.9 -51x26.10 -38x26.11 -41x26.12 -43x26.13 -32x26.14 -47x26.15 -10x26.16 -55x26.17 -31x26.18 -58x26.19 -28x26.20 -22x26.21 -26x26.22 -46x26.23 -49x26.24 -23x26.25 +0x26.26 -19x26.27 -37x26.28 -30x26.29  >= 0;
 z -31x27.0 -24x27.1 -39x27.2 -21x27.3 -43x27.4 -36x27.5 -43x27.6 -46x27.7 -44x27.8 -35x27.9 -66x27.10 -54x27.11 -37x27.12 -57x27.13 -51x27.14 -48x27.15 -26x27.16 -44x27.17 -36x27.18 -60x27.19 -47x27.20 -36x27.21 -40x27.22 -37x27.23 -45x27.24 -14x27.25 -19x27.26 +0x27.27 -56x27.28 -11x27.29  >= 0;
 z -25x28.0 -36x28.1 -39x28.2 -35x28.3 -38x28.4 -39x28.5 -32x28.6 -10x28.7 -52x28.8 -44x28.9 -40x28.10 -21x28.11 -51x28.12 -28x28.13 -46x28.14 -56x28.15 -47x28.16 -40x28.17 -20x28.18 -47x28.19 -63x28.20 -35x28.21 -47x28.22 -59x28.23 -47x28.24 -46x28.25 -37x28.26 -56x28.27 +0x28.28 -45x28.29  >= 0;
 z -36x29.0 -20x29.1 -28x29.2 -10x29.3 -32x29.4 -38x29.5 -36x29.6 -35x29.7 -33x29.8 -24x29.9 -62x29.10 -43x29.11 -26x29.12 -47x29.13 -53x29.14 -37x29.15 -23x29.16 -33x29.17 -25x29.18 -49x29.19 -57x29.20 -46x29.21 -29x29.22 -33x29.23 -41x29.24 -10x29.25 -30x29.26 -11x29.27 -45x29.28 +0x29.29  >= 0;
bin y0;
bin x0.0;
bin x0.1;
bin x0.2;
bin x0.3;
bin x0.4;
bin x0.5;
bin x0.6;
bin x0.7;
bin x0.8;
bin x0.9;
bin x0.10;
bin x0.11;
bin x0.12;
bin x0.13;
bin x0.14;
bin x0.15;
bin x0.16;
bin x0.17;
bin x0.18;
bin x0.19;
bin x0.20;
bin x0.21;
bin x0.22;
bin x0.23;
bin x0.24;
bin x0.25;
bin x0.26;
bin x0.27;
bin x0.28;
bin x0.29;
bin y1;
bin x1.0;
bin x1.1;
bin x1.2;
bin x1.3;
bin x1.4;
bin x1.5;
bin x1.6;
bin x1.7;
bin x1.8;
bin x1.9;
bin x1.10;
bin x1.11;
bin x1.12;
bin x1.13;
bin x1.14;
bin x1.15;
bin x1.16;
bin x1.17;
bin x1.18;
bin x1.19;
bin x1.20;
bin x1.21;
bin x1.22;
bin x1.23;
bin x1.24;
bin x1.25;
bin x1.26;
bin x1.27;
bin x1.28;
bin x1.29;
bin y2;
bin x2.0;
bin x2.1;
bin x2.2;
bin x2.3;
bin x2.4;
bin x2.5;
bin x2.6;
bin x2.7;
bin x2.8;
bin x2.9;
bin x2.10;
bin x2.11;
bin x2.12;
bin x2.13;
bin x2.14;
bin x2.15;
bin x2.16;
bin x2.17;
bin x2.18;
bin x2.19;
bin x2.20;
bin x2.21;
bin x2.22;
bin x2.23;
bin x2.24;
bin x2.25;
bin x2.26;
bin x2.27;
bin x2.28;
bin x2.29;
bin y3;
bin x3.0;
bin x3.1;
bin x3.2;
bin x3.3;
bin x3.4;
bin x3.5;
bin x3.6;
bin x3.7;
bin x3.8;
bin x3.9;
bin x3.10;
bin x3.11;
bin x3.12;
bin x3.13;
bin x3.14;
bin x3.15;
bin x3.16;
bin x3.17;
bin x3.18;
bin x3.19;
bin x3.20;
bin x3.21;
bin x3.22;
bin x3.23;
bin x3.24;
bin x3.25;
bin x3.26;
bin x3.27;
bin x3.28;
bin x3.29;
bin y4;
bin x4.0;
bin x4.1;
bin x4.2;
bin x4.3;
bin x4.4;
bin x4.5;
bin x4.6;
bin x4.7;
bin x4.8;
bin x4.9;
bin x4.10;
bin x4.11;
bin x4.12;
bin x4.13;
bin x4.14;
bin x4.15;
bin x4.16;
bin x4.17;
bin x4.18;
bin x4.19;
bin x4.20;
bin x4.21;
bin x4.22;
bin x4.23;
bin x4.24;
bin x4.25;
bin x4.26;
bin x4.27;
bin x4.28;
bin x4.29;
bin y5;
bin x5.0;
bin x5.1;
bin x5.2;
bin x5.3;
bin x5.4;
bin x5.5;
bin x5.6;
bin x5.7;
bin x5.8;
bin x5.9;
bin x5.10;
bin x5.11;
bin x5.12;
bin x5.13;
bin x5.14;
bin x5.15;
bin x5.16;
bin x5.17;
bin x5.18;
bin x5.19;
bin x5.20;
bin x5.21;
bin x5.22;
bin x5.23;
bin x5.24;
bin x5.25;
bin x5.26;
bin x5.27;
bin x5.28;
bin x5.29;
bin y6;
bin x6.0;
bin x6.1;
bin x6.2;
bin x6.3;
bin x6.4;
bin x6.5;
bin x6.6;
bin x6.7;
bin x6.8;
bin x6.9;
bin x6.10;
bin x6.11;
bin x6.12;
bin x6.13;
bin x6.14;
bin x6.15;
bin x6.16;
bin x6.17;
bin x6.18;
bin x6.19;
bin x6.20;
bin x6.21;
bin x6.22;
bin x6.23;
bin x6.24;
bin x6.25;
bin x6.26;
bin x6.27;
bin x6.28;
bin x6.29;
bin y7;
bin x7.0;
bin x7.1;
bin x7.2;
bin x7.3;
bin x7.4;
bin x7.5;
bin x7.6;
bin x7.7;
bin x7.8;
bin x7.9;
bin x7.10;
bin x7.11;
bin x7.12;
bin x7.13;
bin x7.14;
bin x7.15;
bin x7.16;
bin x7.17;
bin x7.18;
bin x7.19;
bin x7.20;
bin x7.21;
bin x7.22;
bin x7.23;
bin x7.24;
bin x7.25;
bin x7.26;
bin x7.27;
bin x7.28;
bin x7.29;
bin y8;
bin x8.0;
bin x8.1;
bin x8.2;
bin x8.3;
bin x8.4;
bin x8.5;
bin x8.6;
bin x8.7;
bin x8.8;
bin x8.9;
bin x8.10;
bin x8.11;
bin x8.12;
bin x8.13;
bin x8.14;
bin x8.15;
bin x8.16;
bin x8.17;
bin x8.18;
bin x8.19;
bin x8.20;
bin x8.21;
bin x8.22;
bin x8.23;
bin x8.24;
bin x8.25;
bin x8.26;
bin x8.27;
bin x8.28;
bin x8.29;
bin y9;
bin x9.0;
bin x9.1;
bin x9.2;
bin x9.3;
bin x9.4;
bin x9.5;
bin x9.6;
bin x9.7;
bin x9.8;
bin x9.9;
bin x9.10;
bin x9.11;
bin x9.12;
bin x9.13;
bin x9.14;
bin x9.15;
bin x9.16;
bin x9.17;
bin x9.18;
bin x9.19;
bin x9.20;
bin x9.21;
bin x9.22;
bin x9.23;
bin x9.24;
bin x9.25;
bin x9.26;
bin x9.27;
bin x9.28;
bin x9.29;
bin y10;
bin x10.0;
bin x10.1;
bin x10.2;
bin x10.3;
bin x10.4;
bin x10.5;
bin x10.6;
bin x10.7;
bin x10.8;
bin x10.9;
bin x10.10;
bin x10.11;
bin x10.12;
bin x10.13;
bin x10.14;
bin x10.15;
bin x10.16;
bin x10.17;
bin x10.18;
bin x10.19;
bin x10.20;
bin x10.21;
bin x10.22;
bin x10.23;
bin x10.24;
bin x10.25;
bin x10.26;
bin x10.27;
bin x10.28;
bin x10.29;
bin y11;
bin x11.0;
bin x11.1;
bin x11.2;
bin x11.3;
bin x11.4;
bin x11.5;
bin x11.6;
bin x11.7;
bin x11.8;
bin x11.9;
bin x11.10;
bin x11.11;
bin x11.12;
bin x11.13;
bin x11.14;
bin x11.15;
bin x11.16;
bin x11.17;
bin x11.18;
bin x11.19;
bin x11.20;
bin x11.21;
bin x11.22;
bin x11.23;
bin x11.24;
bin x11.25;
bin x11.26;
bin x11.27;
bin x11.28;
bin x11.29;
bin y12;
bin x12.0;
bin x12.1;
bin x12.2;
bin x12.3;
bin x12.4;
bin x12.5;
bin x12.6;
bin x12.7;
bin x12.8;
bin x12.9;
bin x12.10;
bin x12.11;
bin x12.12;
bin x12.13;
bin x12.14;
bin x12.15;
bin x12.16;
bin x12.17;
bin x12.18;
bin x12.19;
bin x12.20;
bin x12.21;
bin x12.22;
bin x12.23;
bin x12.24;
bin x12.25;
bin x12.26;
bin x12.27;
bin x12.28;
bin x12.29;
bin y13;
bin x13.0;
bin x13.1;
bin x13.2;
bin x13.3;
bin x13.4;
bin x13.5;
bin x13.6;
bin x13.7;
bin x13.8;
bin x13.9;
bin x13.10;
bin x13.11;
bin x13.12;
bin x13.13;
bin x13.14;
bin x13.15;
bin x13.16;
bin x13.17;
bin x13.18;
bin x13.19;
bin x13.20;
bin x13.21;
bin x13.22;
bin x13.23;
bin x13.24;
bin x13.25;
bin x13.26;
bin x13.27;
bin x13.28;
bin x13.29;
bin y14;
bin x14.0;
bin x14.1;
bin x14.2;
bin x14.3;
bin x14.4;
bin x14.5;
bin x14.6;
bin x14.7;
bin x14.8;
bin x14.9;
bin x14.10;
bin x14.11;
bin x14.12;
bin x14.13;
bin x14.14;
bin x14.15;
bin x14.16;
bin x14.17;
bin x14.18;
bin x14.19;
bin x14.20;
bin x14.21;
bin x14.22;
bin x14.23;
bin x14.24;
bin x14.25;
bin x14.26;
bin x14.27;
bin x14.28;
bin x14.29;
bin y15;
bin x15.0;
bin x15.1;
bin x15.2;
bin x15.3;
bin x15.4;
bin x15.5;
bin x15.6;
bin x15.7;
bin x15.8;
bin x15.9;
bin x15.10;
bin x15.11;
bin x15.12;
bin x15.13;
bin x15.14;
bin x15.15;
bin x15.16;
bin x15.17;
bin x15.18;
bin x15.19;
bin x15.20;
bin x15.21;
bin x15.22;
bin x15.23;
bin x15.24;
bin x15.25;
bin x15.26;
bin x15.27;
bin x15.28;
bin x15.29;
bin y16;
bin x16.0;
bin x16.1;
bin x16.2;
bin x16.3;
bin x16.4;
bin x16.5;
bin x16.6;
bin x16.7;
bin x16.8;
bin x16.9;
bin x16.10;
bin x16.11;
bin x16.12;
bin x16.13;
bin x16.14;
bin x16.15;
bin x16.16;
bin x16.17;
bin x16.18;
bin x16.19;
bin x16.20;
bin x16.21;
bin x16.22;
bin x16.23;
bin x16.24;
bin x16.25;
bin x16.26;
bin x16.27;
bin x16.28;
bin x16.29;
bin y17;
bin x17.0;
bin x17.1;
bin x17.2;
bin x17.3;
bin x17.4;
bin x17.5;
bin x17.6;
bin x17.7;
bin x17.8;
bin x17.9;
bin x17.10;
bin x17.11;
bin x17.12;
bin x17.13;
bin x17.14;
bin x17.15;
bin x17.16;
bin x17.17;
bin x17.18;
bin x17.19;
bin x17.20;
bin x17.21;
bin x17.22;
bin x17.23;
bin x17.24;
bin x17.25;
bin x17.26;
bin x17.27;
bin x17.28;
bin x17.29;
bin y18;
bin x18.0;
bin x18.1;
bin x18.2;
bin x18.3;
bin x18.4;
bin x18.5;
bin x18.6;
bin x18.7;
bin x18.8;
bin x18.9;
bin x18.10;
bin x18.11;
bin x18.12;
bin x18.13;
bin x18.14;
bin x18.15;
bin x18.16;
bin x18.17;
bin x18.18;
bin x18.19;
bin x18.20;
bin x18.21;
bin x18.22;
bin x18.23;
bin x18.24;
bin x18.25;
bin x18.26;
bin x18.27;
bin x18.28;
bin x18.29;
bin y19;
bin x19.0;
bin x19.1;
bin x19.2;
bin x19.3;
bin x19.4;
bin x19.5;
bin x19.6;
bin x19.7;
bin x19.8;
bin x19.9;
bin x19.10;
bin x19.11;
bin x19.12;
bin x19.13;
bin x19.14;
bin x19.15;
bin x19.16;
bin x19.17;
bin x19.18;
bin x19.19;
bin x19.20;
bin x19.21;
bin x19.22;
bin x19.23;
bin x19.24;
bin x19.25;
bin x19.26;
bin x19.27;
bin x19.28;
bin x19.29;
bin y20;
bin x20.0;
bin x20.1;
bin x20.2;
bin x20.3;
bin x20.4;
bin x20.5;
bin x20.6;
bin x20.7;
bin x20.8;
bin x20.9;
bin x20.10;
bin x20.11;
bin x20.12;
bin x20.13;
bin x20.14;
bin x20.15;
bin x20.16;
bin x20.17;
bin x20.18;
bin x20.19;
bin x20.20;
bin x20.21;
bin x20.22;
bin x20.23;
bin x20.24;
bin x20.25;
bin x20.26;
bin x20.27;
bin x20.28;
bin x20.29;
bin y21;
bin x21.0;
bin x21.1;
bin x21.2;
bin x21.3;
bin x21.4;
bin x21.5;
bin x21.6;
bin x21.7;
bin x21.8;
bin x21.9;
bin x21.10;
bin x21.11;
bin x21.12;
bin x21.13;
bin x21.14;
bin x21.15;
bin x21.16;
bin x21.17;
bin x21.18;
bin x21.19;
bin x21.20;
bin x21.21;
bin x21.22;
bin x21.23;
bin x21.24;
bin x21.25;
bin x21.26;
bin x21.27;
bin x21.28;
bin x21.29;
bin y22;
bin x22.0;
bin x22.1;
bin x22.2;
bin x22.3;
bin x22.4;
bin x22.5;
bin x22.6;
bin x22.7;
bin x22.8;
bin x22.9;
bin x22.10;
bin x22.11;
bin x22.12;
bin x22.13;
bin x22.14;
bin x22.15;
bin x22.16;
bin x22.17;
bin x22.18;
bin x22.19;
bin x22.20;
bin x22.21;
bin x22.22;
bin x22.23;
bin x22.24;
bin x22.25;
bin x22.26;
bin x22.27;
bin x22.28;
bin x22.29;
bin y23;
bin x23.0;
bin x23.1;
bin x23.2;
bin x23.3;
bin x23.4;
bin x23.5;
bin x23.6;
bin x23.7;
bin x23.8;
bin x23.9;
bin x23.10;
bin x23.11;
bin x23.12;
bin x23.13;
bin x23.14;
bin x23.15;
bin x23.16;
bin x23.17;
bin x23.18;
bin x23.19;
bin x23.20;
bin x23.21;
bin x23.22;
bin x23.23;
bin x23.24;
bin x23.25;
bin x23.26;
bin x23.27;
bin x23.28;
bin x23.29;
bin y24;
bin x24.0;
bin x24.1;
bin x24.2;
bin x24.3;
bin x24.4;
bin x24.5;
bin x24.6;
bin x24.7;
bin x24.8;
bin x24.9;
bin x24.10;
bin x24.11;
bin x24.12;
bin x24.13;
bin x24.14;
bin x24.15;
bin x24.16;
bin x24.17;
bin x24.18;
bin x24.19;
bin x24.20;
bin x24.21;
bin x24.22;
bin x24.23;
bin x24.24;
bin x24.25;
bin x24.26;
bin x24.27;
bin x24.28;
bin x24.29;
bin y25;
bin x25.0;
bin x25.1;
bin x25.2;
bin x25.3;
bin x25.4;
bin x25.5;
bin x25.6;
bin x25.7;
bin x25.8;
bin x25.9;
bin x25.10;
bin x25.11;
bin x25.12;
bin x25.13;
bin x25.14;
bin x25.15;
bin x25.16;
bin x25.17;
bin x25.18;
bin x25.19;
bin x25.20;
bin x25.21;
bin x25.22;
bin x25.23;
bin x25.24;
bin x25.25;
bin x25.26;
bin x25.27;
bin x25.28;
bin x25.29;
bin y26;
bin x26.0;
bin x26.1;
bin x26.2;
bin x26.3;
bin x26.4;
bin x26.5;
bin x26.6;
bin x26.7;
bin x26.8;
bin x26.9;
bin x26.10;
bin x26.11;
bin x26.12;
bin x26.13;
bin x26.14;
bin x26.15;
bin x26.16;
bin x26.17;
bin x26.18;
bin x26.19;
bin x26.20;
bin x26.21;
bin x26.22;
bin x26.23;
bin x26.24;
bin x26.25;
bin x26.26;
bin x26.27;
bin x26.28;
bin x26.29;
bin y27;
bin x27.0;
bin x27.1;
bin x27.2;
bin x27.3;
bin x27.4;
bin x27.5;
bin x27.6;
bin x27.7;
bin x27.8;
bin x27.9;
bin x27.10;
bin x27.11;
bin x27.12;
bin x27.13;
bin x27.14;
bin x27.15;
bin x27.16;
bin x27.17;
bin x27.18;
bin x27.19;
bin x27.20;
bin x27.21;
bin x27.22;
bin x27.23;
bin x27.24;
bin x27.25;
bin x27.26;
bin x27.27;
bin x27.28;
bin x27.29;
bin y28;
bin x28.0;
bin x28.1;
bin x28.2;
bin x28.3;
bin x28.4;
bin x28.5;
bin x28.6;
bin x28.7;
bin x28.8;
bin x28.9;
bin x28.10;
bin x28.11;
bin x28.12;
bin x28.13;
bin x28.14;
bin x28.15;
bin x28.16;
bin x28.17;
bin x28.18;
bin x28.19;
bin x28.20;
bin x28.21;
bin x28.22;
bin x28.23;
bin x28.24;
bin x28.25;
bin x28.26;
bin x28.27;
bin x28.28;
bin x28.29;
bin y29;
bin x29.0;
bin x29.1;
bin x29.2;
bin x29.3;
bin x29.4;
bin x29.5;
bin x29.6;
bin x29.7;
bin x29.8;
bin x29.9;
bin x29.10;
bin x29.11;
bin x29.12;
bin x29.13;
bin x29.14;
bin x29.15;
bin x29.16;
bin x29.17;
bin x29.18;
bin x29.19;
bin x29.20;
bin x29.21;
bin x29.22;
bin x29.23;
bin x29.24;
bin x29.25;
bin x29.26;
bin x29.27;
bin x29.28;
bin x29.29;
