Output/Exact/Random_030_01_6.lp.out
CPU Time for Parsing input: 0.003282s (0.003282s total since program start)
CPU Time for solving: 6.87569s (6.87897s total since program start)

Value of objective function: 28.00000000
